c Random generated cnf formula, satisfiable: true
p cnf 10 50
8 3 6 0
1 8 5 0
-2 4 8 0
10 -6 8 0
-2 7 4 0
7 -1 -8 0
8 5 1 0
5 -4 3 0
2 8 -9 0
-7 -9 1 0
-6 -9 -5 0
-9 -1 7 0
-8 7 -1 0
-1 10 5 0
5 7 3 0
-5 6 8 0
4 1 8 0
9 -2 4 0
-10 -7 8 0
-6 4 5 0
-1 7 -2 0
8 -4 -1 0
3 8 -7 0
-5 -4 6 0
-7 -8 -5 0
-1 -6 10 0
-9 -10 8 0
4 -5 -6 0
2 1 8 0
2 4 9 0
10 3 6 0
-6 -9 5 0
10 7 6 0
-4 -7 10 0
-9 -5 4 0
9 7 3 0
5 8 -3 0
-1 4 3 0
5 -2 4 0
-2 -6 -7 0
7 5 -6 0
-6 -3 -8 0
1 -4 -8 0
7 -2 -5 0
-7 8 -9 0
10 -6 5 0
5 -6 1 0
8 1 7 0
9 1 -8 0
-8 4 -9 0
